# Objective value = 2.4196700000000005e+03
I_0_0 649
I_0_1 895
I_0_2 783
I_0_3 8.2800000000000023e+02
I_0_4 829
I_0_5 716
I_0_6 9.6199999999999989e+02
I_1_0 118
I_1_1 59
I_1_2 1.1800000000000003e+02
I_1_3 5.9000000000000028e+01
I_1_4 2.8421709430404007e-14
I_1_5 1.1799999999999999e+02
I_1_6 5.8999999999999993e+01
I_2_0 89
I_2_1 0
I_2_2 89
I_2_3 0
I_2_4 89
I_2_5 89
I_2_6 0
I_3_0 134
I_3_1 6.7000000000000028e+01
I_3_2 5.6843418860808015e-14
I_3_3 1.3399999999999974e+02
I_3_4 134
I_3_5 6.7000000000000057e+01
I_3_6 5.1822743627225229e-14
I_4_0 24
I_4_1 12
I_4_2 24
I_4_3 1.2000000000000002e+01
I_4_4 0
I_4_5 24
I_4_6 12
I_5_0 38
I_5_1 1.9000000000000018e+01
I_5_2 3.8000000000000014e+01
I_5_3 1.9000000000000018e+01
I_5_4 1.9860656329405518e-14
I_5_5 3.7999999999999972e+01
I_5_6 1.8999999999999972e+01
q_1_0 0
q_1_1 1.1800000000000003e+02
q_1_2 0
q_1_3 0
q_1_4 1.7699999999999997e+02
q_1_5 0
q_2_0 0
q_2_1 178
q_2_2 0
q_2_3 178
q_2_4 89
q_2_5 0
q_3_0 2.9753977059954195e-14
q_3_1 0
q_3_2 2.0099999999999969e+02
q_3_3 6.7000000000000270e+01
q_3_4 5.6707724935575918e-14
q_3_5 0
q_4_0 0
q_4_1 24
q_4_2 0
q_4_3 0
q_4_4 36
q_4_5 0
q_5_0 1.6875389974302379e-14
q_5_1 3.8000000000000036e+01
q_5_2 0
q_5_3 -5.6744732369736254e-16
q_5_4 5.7000000000000021e+01
q_5_5 0
y_0_0 0
y_0_1 1
y_0_2 1
y_0_3 1
y_0_4 1
y_0_5 0
y_1_0 0
y_1_1 1
y_1_2 0
y_1_3 0
y_1_4 1
y_1_5 0
y_2_0 0
y_2_1 1
y_2_2 0
y_2_3 1
y_2_4 1
y_2_5 0
y_3_0 4.4408920985006262e-16
y_3_1 0
y_3_2 1
y_3_3 1
y_3_4 7.1547706031398881e-16
y_3_5 0
y_4_0 0
y_4_1 1
y_4_2 0
y_4_3 0
y_4_4 1
y_4_5 0
y_5_0 8.8817841970012523e-16
y_5_1 1
y_5_2 -2.2204460492503131e-16
y_5_3 9.3752166523902011e-16
y_5_4 1
y_5_5 0
x_0_1_0 0
x_0_1_1 0
x_0_1_2 0
x_0_1_3 0
x_0_1_4 0
x_0_1_5 0
x_0_2_0 0
x_0_2_1 1
x_0_2_2 0
x_0_2_3 9.9999999999999944e-01
x_0_2_4 1
x_0_2_5 0
x_0_3_0 0
x_0_3_1 0
x_0_3_2 2
x_0_3_3 9.9999999999999978e-01
x_0_3_4 1.4309541206279776e-15
x_0_3_5 0
x_0_4_0 0
x_0_4_1 0
x_0_4_2 0
x_0_4_3 0
x_0_4_4 0
x_0_4_5 0
x_0_5_0 0
x_0_5_1 1
x_0_5_2 -4.4408920985006262e-16
x_0_5_3 1.2705885726265671e-15
x_0_5_4 9.9999999999999989e-01
x_0_5_5 0
x_1_2_0 0
x_1_2_1 0
x_1_2_2 0
x_1_2_3 0
x_1_2_4 0
x_1_2_5 0
x_1_3_0 0
x_1_3_1 0
x_1_3_2 0
x_1_3_3 0
x_1_3_4 0
x_1_3_5 0
x_1_4_0 0
x_1_4_1 1
x_1_4_2 0
x_1_4_3 0
x_1_4_4 1
x_1_4_5 0
x_1_5_0 0
x_1_5_1 1
x_1_5_2 0
x_1_5_3 0
x_1_5_4 1
x_1_5_5 0
x_2_3_0 0
x_2_3_1 0
x_2_3_2 0
x_2_3_3 1
x_2_3_4 0
x_2_3_5 0
x_2_4_0 0
x_2_4_1 1
x_2_4_2 0
x_2_4_3 0
x_2_4_4 1
x_2_4_5 0
x_2_5_0 0
x_2_5_1 0
x_2_5_2 0
x_2_5_3 6.0445475785147315e-16
x_2_5_4 0
x_2_5_5 0
x_3_4_0 0
x_3_4_1 0
x_3_4_2 0
x_3_4_3 0
x_3_4_4 0
x_3_4_5 0
x_3_5_0 1.7763568394002505e-15
x_3_5_1 0
x_3_5_2 0
x_3_5_3 0
x_3_5_4 0
x_3_5_5 0
x_4_5_0 0
x_4_5_1 0
x_4_5_2 0
x_4_5_3 0
x_4_5_4 0
x_4_5_5 0
